DIMENSION: 21
CAPACIDAD: 30

TIEMPOS:
0 4 6 8 5 7 3 6 9 5 8 7 6 4 5 7 8 6 9 5 4
4 0 5 7 6 8 4 5 7 6 7 6 5 3 6 8 7 5 6 4 5
6 5 0 4 7 6 5 6 8 7 6 5 4 6 7 5 6 7 8 6 5
8 7 4 0 5 7 6 7 5 8 7 6 5 7 6 4 5 6 7 8 6
5 6 7 5 0 4 6 5 7 6 5 7 6 5 4 6 7 5 6 7 5
7 8 6 7 4 0 5 6 8 7 6 5 7 6 5 4 6 7 5 6 7
3 4 5 6 6 5 0 4 6 5 7 6 5 4 6 7 5 6 7 5 4
6 5 6 7 5 6 4 0 5 6 7 5 6 5 7 6 4 5 6 7 5
9 7 8 5 7 8 6 5 0 4 6 7 8 6 5 7 6 5 4 6 7
5 6 7 8 6 7 5 6 4 0 5 6 7 5 6 8 7 6 5 4 6
8 7 6 7 5 6 7 7 6 5 0 4 5 6 7 5 6 8 7 6 5
7 6 5 6 7 5 6 5 7 6 4 0 6 7 5 6 7 5 6 8 7
6 5 4 5 6 7 5 6 8 7 5 6 0 4 6 7 5 6 7 5 6
4 3 6 7 5 6 4 5 6 5 6 7 4 0 5 6 7 5 6 4 5
5 6 7 6 4 5 6 7 5 6 7 5 6 5 0 4 5 6 7 5 6
7 8 5 4 6 4 7 6 7 8 5 6 7 6 4 0 6 7 5 6 7
8 7 6 5 7 6 5 4 6 7 6 7 5 7 5 6 0 4 6 7 5
6 5 7 6 5 7 6 5 5 6 8 5 6 5 6 7 4 0 5 6 7
9 6 8 7 6 5 7 6 4 5 7 6 7 6 7 5 6 5 0 4 6
5 4 6 8 7 6 5 7 6 4 6 8 5 4 5 6 7 6 4 0 5
4 5 5 6 5 7 4 5 7 6 5 7 6 5 6 7 5 7 6 5 0

DEMANDA:
0 0
1 6
2 9
3 7
4 5
5 8
6 4
7 6
8 5
9 7
10 5
11 6
12 8
13 4
14 7
15 2
16 6
17 5
18 8
19 7
20 6